CapLotSizing_PM/src/Instancias/NCHSHT/6i6p4m/NBA05.OUT
 CG ITER, OVMR, OVMRUB =           1   30009.6367188   17339.0976562
 CG ITER, OVMR, OVMRUB =           2   16957.4062500   16754.7011719
 CG ITER, OVMR, OVMRUB =           3   16548.3066406   15740.2373047
 CG ITER, OVMR, OVMRUB =           4   15977.8457031   15740.2373047
 CG ITER, OVMR, OVMRUB =           5   15977.8457031   15740.2373047
 CG ITER, OVMR, OVMRUB =           6   15977.8457031   15740.2373047
 CG ITER, OVMR, OVMRUB =           7   15977.8457031   15740.2373047
 CG ITER, OVMR, OVMRUB =           8   15977.8457031   15740.2373047
 CG ITER, OVMR, OVMRUB =           9   15977.8457031   15740.2373047
 CG ITER, OVMR, OVMRUB =          10   15977.8457031   15740.2373047
OVLB =   15977.8457031 OVLUB =   15740.2373047 TIME =       0.2400000
